p cnf 966 2481
51 -699 -700 0
-51 699 0
-51 700 0
52 -51 -701 0
-52 51 0
-52 701 0
53 -702 -4 0
-53 702 0
-53 4 0
54 -53 -3 0
-54 53 0
-54 3 0
55 -703 -704 0
-55 703 0
-55 704 0
56 -6 -5 0
-56 6 0
-56 5 0
57 -56 -7 0
-57 56 0
-57 7 0
58 -705 -55 0
-58 705 0
-58 55 0
59 -706 -701 0
-59 706 0
-59 701 0
60 -59 -9 0
-60 59 0
-60 9 0
61 -707 -58 0
-61 707 0
-61 58 0
62 -708 -10 0
-62 708 0
-62 10 0
63 -62 -12 0
-63 62 0
-63 12 0
64 -709 -61 0
-64 709 0
-64 61 0
65 -13 -5 0
-65 13 0
-65 5 0
66 -65 -701 0
-66 65 0
-66 701 0
67 -710 -64 0
-67 710 0
-67 64 0
68 -15 -14 0
-68 15 0
-68 14 0
69 -68 -16 0
-69 68 0
-69 16 0
70 -711 -67 0
-70 711 0
-70 67 0
71 -18 -17 0
-71 18 0
-71 17 0
72 -71 -712 0
-72 71 0
-72 712 0
73 -713 -70 0
-73 713 0
-73 70 0
74 -714 -19 0
-74 714 0
-74 19 0
75 -74 -715 0
-75 74 0
-75 715 0
76 -716 -73 0
-76 716 0
-76 73 0
77 -717 -718 0
-77 717 0
-77 718 0
78 -77 -719 0
-78 77 0
-78 719 0
79 -720 -76 0
-79 720 0
-79 76 0
80 -25 -5 0
-80 25 0
-80 5 0
81 -80 -719 0
-81 80 0
-81 719 0
82 -721 -79 0
-82 721 0
-82 79 0
83 -722 -717 0
-83 722 0
-83 717 0
84 -83 -7 0
-84 83 0
-84 7 0
85 -723 -82 0
-85 723 0
-85 82 0
86 -724 -8 0
-86 724 0
-86 8 0
87 -86 -725 0
-87 86 0
-87 725 0
88 -726 -85 0
-88 726 0
-88 85 0
89 -727 -728 0
-89 727 0
-89 728 0
90 -89 -729 0
-90 89 0
-90 729 0
91 -730 -88 0
-91 730 0
-91 88 0
92 -30 -29 0
-92 30 0
-92 29 0
93 -92 -31 0
-93 92 0
-93 31 0
94 -731 -91 0
-94 731 0
-94 91 0
95 -717 -20 0
-95 717 0
-95 20 0
96 -95 -32 0
-96 95 0
-96 32 0
97 -732 -94 0
-97 732 0
-97 94 0
98 -733 -734 0
-98 733 0
-98 734 0
99 -98 -715 0
-99 98 0
-99 715 0
100 -735 -97 0
-100 735 0
-100 97 0
101 -733 -26 0
-101 733 0
-101 26 0
102 -101 -35 0
-102 101 0
-102 35 0
103 -736 -100 0
-103 736 0
-103 100 0
104 -719 -706 0
-104 719 0
-104 706 0
105 -104 -737 0
-105 104 0
-105 737 0
106 -738 -103 0
-106 738 0
-106 103 0
107 -37 -13 0
-107 37 0
-107 13 0
108 -107 -31 0
-108 107 0
-108 31 0
109 -739 -106 0
-109 739 0
-109 106 0
110 -740 -17 0
-110 740 0
-110 17 0
111 -110 -39 0
-111 110 0
-111 39 0
112 -741 -109 0
-112 741 0
-112 109 0
113 -742 -722 0
-113 742 0
-113 722 0
114 -113 -737 0
-114 113 0
-114 737 0
115 -743 -112 0
-115 743 0
-115 112 0
116 -744 -29 0
-116 744 0
-116 29 0
117 -116 -7 0
-117 116 0
-117 7 0
118 -745 -115 0
-118 745 0
-118 115 0
119 -23 -15 0
-119 23 0
-119 15 0
120 -119 -41 0
-120 119 0
-120 41 0
121 -746 -118 0
-121 746 0
-121 118 0
122 -10 -5 0
-122 10 0
-122 5 0
123 -122 -747 0
-123 122 0
-123 747 0
124 -748 -121 0
-124 748 0
-124 121 0
125 -734 -749 0
-125 734 0
-125 749 0
126 -125 -16 0
-126 125 0
-126 16 0
127 -750 -124 0
-127 750 0
-127 124 0
128 -39 -728 0
-128 39 0
-128 728 0
129 -128 -725 0
-129 128 0
-129 725 0
130 -751 -127 0
-130 751 0
-130 127 0
131 -33 -749 0
-131 33 0
-131 749 0
132 -131 -715 0
-132 131 0
-132 715 0
133 -752 -130 0
-133 752 0
-133 130 0
134 -753 -11 0
-134 753 0
-134 11 0
135 -134 -16 0
-135 134 0
-135 16 0
136 -754 -133 0
-136 754 0
-136 133 0
137 -722 -14 0
-137 722 0
-137 14 0
138 -137 -40 0
-138 137 0
-138 40 0
139 -755 -136 0
-139 755 0
-139 136 0
140 -35 -756 0
-140 35 0
-140 756 0
141 -140 -30 0
-141 140 0
-141 30 0
142 -757 -139 0
-142 757 0
-142 139 0
143 -742 -3 0
-143 742 0
-143 3 0
144 -143 -9 0
-144 143 0
-144 9 0
145 -758 -142 0
-145 758 0
-145 142 0
146 -759 -760 0
-146 759 0
-146 760 0
147 -146 -31 0
-147 146 0
-147 31 0
148 -761 -145 0
-148 761 0
-148 145 0
149 -742 -17 0
-149 742 0
-149 17 0
150 -149 -729 0
-150 149 0
-150 729 0
151 -762 -148 0
-151 762 0
-151 148 0
152 -742 -14 0
-152 742 0
-152 14 0
153 -152 -36 0
-153 152 0
-153 36 0
154 -763 -151 0
-154 763 0
-154 151 0
155 -43 -764 0
-155 43 0
-155 764 0
156 -155 -765 0
-156 155 0
-156 765 0
157 -766 -154 0
-157 766 0
-157 154 0
158 -37 -724 0
-158 37 0
-158 724 0
159 -158 -767 0
-159 158 0
-159 767 0
160 -768 -157 0
-160 768 0
-160 157 0
161 -19 -17 0
-161 19 0
-161 17 0
162 -161 -765 0
-162 161 0
-162 765 0
163 -769 -160 0
-163 769 0
-163 160 0
164 -737 -34 0
-164 737 0
-164 34 0
165 -164 -44 0
-165 164 0
-165 44 0
166 -770 -163 0
-166 770 0
-166 163 0
167 -40 -764 0
-167 40 0
-167 764 0
168 -167 -749 0
-168 167 0
-168 749 0
169 -771 -166 0
-169 771 0
-169 166 0
170 -722 -772 0
-170 722 0
-170 772 0
171 -170 -14 0
-171 170 0
-171 14 0
172 -773 -169 0
-172 773 0
-172 169 0
173 -14 -708 0
-173 14 0
-173 708 0
174 -173 -727 0
-174 173 0
-174 727 0
175 -774 -172 0
-175 774 0
-175 172 0
176 -775 -45 0
-176 775 0
-176 45 0
177 -176 -756 0
-177 176 0
-177 756 0
178 -776 -175 0
-178 776 0
-178 175 0
179 -18 -706 0
-179 18 0
-179 706 0
180 -179 -777 0
-180 179 0
-180 777 0
181 -778 -178 0
-181 778 0
-181 178 0
182 -34 -717 0
-182 34 0
-182 717 0
183 -182 -3 0
-183 182 0
-183 3 0
184 -779 -181 0
-184 779 0
-184 181 0
185 -780 -714 0
-185 780 0
-185 714 0
186 -185 -19 0
-186 185 0
-186 19 0
187 -781 -184 0
-187 781 0
-187 184 0
188 -714 -7 0
-188 714 0
-188 7 0
189 -188 -715 0
-189 188 0
-189 715 0
190 -782 -187 0
-190 782 0
-190 187 0
191 -41 -760 0
-191 41 0
-191 760 0
192 -191 -42 0
-192 191 0
-192 42 0
193 -783 -190 0
-193 783 0
-193 190 0
194 -20 -4 0
-194 20 0
-194 4 0
195 -194 -16 0
-195 194 0
-195 16 0
196 -784 -193 0
-196 784 0
-196 193 0
197 -740 -14 0
-197 740 0
-197 14 0
198 -197 -733 0
-198 197 0
-198 733 0
199 -785 -196 0
-199 785 0
-199 196 0
200 -17 -4 0
-200 17 0
-200 4 0
201 -200 -6 0
-201 200 0
-201 6 0
202 -786 -199 0
-202 786 0
-202 199 0
203 -26 -760 0
-203 26 0
-203 760 0
204 -203 -747 0
-204 203 0
-204 747 0
205 -787 -202 0
-205 787 0
-205 202 0
206 -747 -11 0
-206 747 0
-206 11 0
207 -206 -7 0
-207 206 0
-207 7 0
208 -788 -205 0
-208 788 0
-208 205 0
209 -767 -10 0
-209 767 0
-209 10 0
210 -209 -16 0
-210 209 0
-210 16 0
211 -789 -208 0
-211 789 0
-211 208 0
212 -722 -790 0
-212 722 0
-212 790 0
213 -212 -744 0
-213 212 0
-213 744 0
214 -791 -211 0
-214 791 0
-214 211 0
215 -46 -8 0
-215 46 0
-215 8 0
216 -215 -48 0
-216 215 0
-216 48 0
217 -792 -214 0
-217 792 0
-217 214 0
218 -32 -790 0
-218 32 0
-218 790 0
219 -218 -747 0
-219 218 0
-219 747 0
220 -793 -217 0
-220 793 0
-220 217 0
221 -43 -708 0
-221 43 0
-221 708 0
222 -221 -21 0
-222 221 0
-222 21 0
223 -794 -220 0
-223 794 0
-223 220 0
224 -39 -702 0
-224 39 0
-224 702 0
225 -224 -32 0
-225 224 0
-225 32 0
226 -795 -223 0
-226 795 0
-226 223 0
227 -28 -777 0
-227 28 0
-227 777 0
228 -227 -715 0
-228 227 0
-228 715 0
229 -796 -226 0
-229 796 0
-229 226 0
230 -742 -790 0
-230 742 0
-230 790 0
231 -230 -715 0
-231 230 0
-231 715 0
232 -797 -229 0
-232 797 0
-232 229 0
233 -7 -6 0
-233 7 0
-233 6 0
234 -233 -21 0
-234 233 0
-234 21 0
235 -798 -232 0
-235 798 0
-235 232 0
236 -17 -728 0
-236 17 0
-236 728 0
237 -236 -9 0
-237 236 0
-237 9 0
238 -799 -235 0
-238 799 0
-238 235 0
239 -43 -4 0
-239 43 0
-239 4 0
240 -239 -759 0
-240 239 0
-240 759 0
241 -800 -238 0
-241 800 0
-241 238 0
242 -34 -18 0
-242 34 0
-242 18 0
243 -242 -47 0
-243 242 0
-243 47 0
244 -801 -241 0
-244 801 0
-244 241 0
245 -712 -14 0
-245 712 0
-245 14 0
246 -245 -749 0
-246 245 0
-246 749 0
247 -802 -244 0
-247 802 0
-247 244 0
248 -765 -708 0
-248 765 0
-248 708 0
249 -248 -16 0
-249 248 0
-249 16 0
250 -803 -247 0
-250 803 0
-250 247 0
251 -740 -804 0
-251 740 0
-251 804 0
252 -251 -47 0
-252 251 0
-252 47 0
253 -805 -250 0
-253 805 0
-253 250 0
254 -712 -777 0
-254 712 0
-254 777 0
255 -254 -806 0
-255 254 0
-255 806 0
256 -807 -253 0
-256 807 0
-256 253 0
257 -48 -764 0
-257 48 0
-257 764 0
258 -257 -9 0
-258 257 0
-258 9 0
259 -808 -256 0
-259 808 0
-259 256 0
260 -724 -2 0
-260 724 0
-260 2 0
261 -260 -42 0
-261 260 0
-261 42 0
262 -809 -259 0
-262 809 0
-262 259 0
263 -23 -14 0
-263 23 0
-263 14 0
264 -263 -725 0
-264 263 0
-264 725 0
265 -810 -262 0
-265 810 0
-265 262 0
266 -49 -42 0
-266 49 0
-266 42 0
267 -266 -729 0
-267 266 0
-267 729 0
268 -811 -265 0
-268 811 0
-268 265 0
269 -722 -812 0
-269 722 0
-269 812 0
270 -269 -50 0
-270 269 0
-270 50 0
271 -813 -268 0
-271 813 0
-271 268 0
272 -814 -43 0
-272 814 0
-272 43 0
273 -272 -36 0
-273 272 0
-273 36 0
274 -815 -271 0
-274 815 0
-274 271 0
275 -724 -706 0
-275 724 0
-275 706 0
276 -275 -16 0
-276 275 0
-276 16 0
277 -816 -274 0
-277 816 0
-277 274 0
278 -734 -727 0
-278 734 0
-278 727 0
279 -278 -712 0
-279 278 0
-279 712 0
280 -817 -277 0
-280 817 0
-280 277 0
281 -46 -14 0
-281 46 0
-281 14 0
282 -281 -36 0
-282 281 0
-282 36 0
283 -818 -280 0
-283 818 0
-283 280 0
284 -47 -740 0
-284 47 0
-284 740 0
285 -284 -812 0
-285 284 0
-285 812 0
286 -819 -283 0
-286 819 0
-286 283 0
287 -281 -724 0
-287 281 0
-287 724 0
288 -820 -286 0
-288 820 0
-288 286 0
289 -724 -728 0
-289 724 0
-289 728 0
290 -289 -740 0
-290 289 0
-290 740 0
291 -821 -288 0
-291 821 0
-291 288 0
292 -775 -6 0
-292 775 0
-292 6 0
293 -292 -12 0
-293 292 0
-293 12 0
294 -822 -291 0
-294 822 0
-294 291 0
295 -31 -712 0
-295 31 0
-295 712 0
296 -295 -21 0
-296 295 0
-296 21 0
297 -823 -294 0
-297 823 0
-297 294 0
298 -47 -14 0
-298 47 0
-298 14 0
299 -298 -48 0
-299 298 0
-299 48 0
300 -824 -297 0
-300 824 0
-300 297 0
301 -749 -706 0
-301 749 0
-301 706 0
302 -301 -9 0
-302 301 0
-302 9 0
303 -825 -300 0
-303 825 0
-303 300 0
304 -780 -15 0
-304 780 0
-304 15 0
305 -304 -826 0
-305 304 0
-305 826 0
306 -827 -303 0
-306 827 0
-306 303 0
307 -828 -14 0
-307 828 0
-307 14 0
308 -307 -6 0
-308 307 0
-308 6 0
309 -829 -306 0
-309 829 0
-309 306 0
310 -74 -7 0
-310 74 0
-310 7 0
311 -830 -309 0
-311 830 0
-311 309 0
312 -727 -23 0
-312 727 0
-312 23 0
313 -312 -16 0
-313 312 0
-313 16 0
314 -831 -311 0
-314 831 0
-314 311 0
315 -19 -12 0
-315 19 0
-315 12 0
316 -315 -50 0
-316 315 0
-316 50 0
317 -832 -314 0
-317 832 0
-317 314 0
318 -30 -702 0
-318 30 0
-318 702 0
319 -318 -31 0
-319 318 0
-319 31 0
320 -833 -317 0
-320 833 0
-320 317 0
321 -16 -1 0
-321 16 0
-321 1 0
322 -321 -21 0
-322 321 0
-322 21 0
323 -834 -320 0
-323 834 0
-323 320 0
324 -727 -700 0
-324 727 0
-324 700 0
325 -324 -27 0
-325 324 0
-325 27 0
326 -835 -323 0
-326 835 0
-326 323 0
327 -733 -759 0
-327 733 0
-327 759 0
328 -327 -725 0
-328 327 0
-328 725 0
329 -836 -326 0
-329 836 0
-329 326 0
330 -17 -10 0
-330 17 0
-330 10 0
331 -330 -837 0
-331 330 0
-331 837 0
332 -838 -329 0
-332 838 0
-332 329 0
333 -27 -699 0
-333 27 0
-333 699 0
334 -333 -806 0
-334 333 0
-334 806 0
335 -839 -332 0
-335 839 0
-335 332 0
336 -45 -714 0
-336 45 0
-336 714 0
337 -336 -744 0
-337 336 0
-337 744 0
338 -840 -335 0
-338 840 0
-338 335 0
339 -26 -706 0
-339 26 0
-339 706 0
340 -339 -20 0
-340 339 0
-340 20 0
341 -841 -338 0
-341 841 0
-341 338 0
342 -38 -23 0
-342 38 0
-342 23 0
343 -342 -20 0
-343 342 0
-343 20 0
344 -842 -341 0
-344 842 0
-344 341 0
345 -41 -700 0
-345 41 0
-345 700 0
346 -345 -48 0
-346 345 0
-346 48 0
347 -843 -344 0
-347 843 0
-347 344 0
348 -13 -8 0
-348 13 0
-348 8 0
349 -348 -729 0
-349 348 0
-349 729 0
350 -844 -347 0
-350 844 0
-350 347 0
351 -747 -20 0
-351 747 0
-351 20 0
352 -351 -24 0
-352 351 0
-352 24 0
353 -845 -350 0
-353 845 0
-353 350 0
354 -717 -18 0
-354 717 0
-354 18 0
355 -354 -737 0
-355 354 0
-355 737 0
356 -846 -353 0
-356 846 0
-356 353 0
357 -45 -17 0
-357 45 0
-357 17 0
358 -357 -12 0
-358 357 0
-358 12 0
359 -847 -356 0
-359 847 0
-359 356 0
360 -32 -26 0
-360 32 0
-360 26 0
361 -360 -27 0
-361 360 0
-361 27 0
362 -848 -359 0
-362 848 0
-362 359 0
363 -10 -4 0
-363 10 0
-363 4 0
364 -363 -29 0
-364 363 0
-364 29 0
365 -849 -362 0
-365 849 0
-365 362 0
366 -714 -708 0
-366 714 0
-366 708 0
367 -366 -28 0
-367 366 0
-367 28 0
368 -850 -365 0
-368 850 0
-368 365 0
369 -43 -17 0
-369 43 0
-369 17 0
370 -369 -21 0
-370 369 0
-370 21 0
371 -851 -368 0
-371 851 0
-371 368 0
372 -780 -724 0
-372 780 0
-372 724 0
373 -372 -42 0
-373 372 0
-373 42 0
374 -852 -371 0
-374 852 0
-374 371 0
375 -767 -714 0
-375 767 0
-375 714 0
376 -375 -24 0
-376 375 0
-376 24 0
377 -853 -374 0
-377 853 0
-377 374 0
378 -747 -699 0
-378 747 0
-378 699 0
379 -378 -812 0
-379 378 0
-379 812 0
380 -854 -377 0
-380 854 0
-380 377 0
381 -47 -45 0
-381 47 0
-381 45 0
382 -381 -765 0
-382 381 0
-382 765 0
383 -855 -380 0
-383 855 0
-383 380 0
384 -33 -708 0
-384 33 0
-384 708 0
385 -384 -3 0
-385 384 0
-385 3 0
386 -856 -383 0
-386 856 0
-386 383 0
387 -47 -724 0
-387 47 0
-387 724 0
388 -387 -806 0
-388 387 0
-388 806 0
389 -857 -386 0
-389 857 0
-389 386 0
390 -34 -724 0
-390 34 0
-390 724 0
391 -390 -3 0
-391 390 0
-391 3 0
392 -858 -389 0
-392 858 0
-392 389 0
393 -775 -2 0
-393 775 0
-393 2 0
394 -393 -48 0
-394 393 0
-394 48 0
395 -859 -392 0
-395 859 0
-395 392 0
396 -37 -18 0
-396 37 0
-396 18 0
397 -396 -9 0
-397 396 0
-397 9 0
398 -860 -395 0
-398 860 0
-398 395 0
399 -804 -18 0
-399 804 0
-399 18 0
400 -399 -756 0
-400 399 0
-400 756 0
401 -861 -398 0
-401 861 0
-401 398 0
402 -38 -767 0
-402 38 0
-402 767 0
403 -402 -39 0
-403 402 0
-403 39 0
404 -862 -401 0
-404 862 0
-404 401 0
405 -26 -700 0
-405 26 0
-405 700 0
406 -405 -828 0
-406 405 0
-406 828 0
407 -863 -404 0
-407 863 0
-407 404 0
408 -34 -718 0
-408 34 0
-408 718 0
409 -408 -715 0
-409 408 0
-409 715 0
410 -864 -407 0
-410 864 0
-410 407 0
411 -22 -16 0
-411 22 0
-411 16 0
412 -411 -715 0
-412 411 0
-412 715 0
413 -865 -410 0
-413 865 0
-413 410 0
414 -39 -804 0
-414 39 0
-414 804 0
415 -414 -715 0
-415 414 0
-415 715 0
416 -866 -413 0
-416 866 0
-416 413 0
417 -414 -9 0
-417 414 0
-417 9 0
418 -867 -416 0
-418 867 0
-418 416 0
419 -719 -700 0
-419 719 0
-419 700 0
420 -419 -729 0
-420 419 0
-420 729 0
421 -868 -418 0
-421 868 0
-421 418 0
422 -753 -733 0
-422 753 0
-422 733 0
423 -422 -2 0
-423 422 0
-423 2 0
424 -869 -421 0
-424 869 0
-424 421 0
425 -22 -10 0
-425 22 0
-425 10 0
426 -425 -734 0
-426 425 0
-426 734 0
427 -870 -424 0
-427 870 0
-427 424 0
428 -719 -16 0
-428 719 0
-428 16 0
429 -428 -871 0
-429 428 0
-429 871 0
430 -872 -427 0
-430 872 0
-430 427 0
431 -43 -41 0
-431 43 0
-431 41 0
432 -431 -715 0
-432 431 0
-432 715 0
433 -873 -430 0
-433 873 0
-433 430 0
434 -715 -19 0
-434 715 0
-434 19 0
435 -434 -729 0
-435 434 0
-435 729 0
436 -874 -433 0
-436 874 0
-436 433 0
437 -29 -764 0
-437 29 0
-437 764 0
438 -437 -875 0
-438 437 0
-438 875 0
439 -876 -436 0
-439 876 0
-439 436 0
440 -877 -10 0
-440 877 0
-440 10 0
441 -440 -760 0
-441 440 0
-441 760 0
442 -878 -439 0
-442 878 0
-442 439 0
443 -767 -706 0
-443 767 0
-443 706 0
444 -443 -19 0
-444 443 0
-444 19 0
445 -879 -442 0
-445 879 0
-445 442 0
446 -775 -722 0
-446 775 0
-446 722 0
447 -446 -747 0
-447 446 0
-447 747 0
448 -880 -445 0
-448 880 0
-448 445 0
449 -17 -706 0
-449 17 0
-449 706 0
450 -449 -717 0
-450 449 0
-450 717 0
451 -881 -448 0
-451 881 0
-451 448 0
452 -718 -728 0
-452 718 0
-452 728 0
453 -452 -27 0
-453 452 0
-453 27 0
454 -882 -451 0
-454 882 0
-454 451 0
455 -36 -17 0
-455 36 0
-455 17 0
456 -455 -715 0
-456 455 0
-456 715 0
457 -883 -454 0
-457 883 0
-457 454 0
458 -728 -3 0
-458 728 0
-458 3 0
459 -458 -7 0
-459 458 0
-459 7 0
460 -884 -457 0
-460 884 0
-460 457 0
461 -42 -706 0
-461 42 0
-461 706 0
462 -461 -715 0
-462 461 0
-462 715 0
463 -885 -460 0
-463 885 0
-463 460 0
464 -742 -29 0
-464 742 0
-464 29 0
465 -464 -871 0
-465 464 0
-465 871 0
466 -886 -463 0
-466 886 0
-466 463 0
467 -742 -804 0
-467 742 0
-467 804 0
468 -467 -828 0
-468 467 0
-468 828 0
469 -887 -466 0
-469 887 0
-469 466 0
470 -722 -700 0
-470 722 0
-470 700 0
471 -470 -740 0
-471 470 0
-471 740 0
472 -888 -469 0
-472 888 0
-472 469 0
473 -780 -814 0
-473 780 0
-473 814 0
474 -473 -712 0
-474 473 0
-474 712 0
475 -889 -472 0
-475 889 0
-475 472 0
476 -775 -17 0
-476 775 0
-476 17 0
477 -476 -756 0
-477 476 0
-477 756 0
478 -890 -475 0
-478 890 0
-478 475 0
479 -42 -765 0
-479 42 0
-479 765 0
480 -479 -826 0
-480 479 0
-480 826 0
481 -891 -478 0
-481 891 0
-481 478 0
482 -35 -26 0
-482 35 0
-482 26 0
483 -482 -16 0
-483 482 0
-483 16 0
484 -892 -481 0
-484 892 0
-484 481 0
485 -814 -706 0
-485 814 0
-485 706 0
486 -485 -13 0
-486 485 0
-486 13 0
487 -893 -484 0
-487 893 0
-487 484 0
488 -35 -13 0
-488 35 0
-488 13 0
489 -488 -749 0
-489 488 0
-489 749 0
490 -894 -487 0
-490 894 0
-490 487 0
491 -877 -14 0
-491 877 0
-491 14 0
492 -491 -715 0
-492 491 0
-492 715 0
493 -895 -490 0
-493 895 0
-493 490 0
494 -728 -1 0
-494 728 0
-494 1 0
495 -494 -29 0
-495 494 0
-495 29 0
496 -896 -493 0
-496 896 0
-496 493 0
497 -37 -25 0
-497 37 0
-497 25 0
498 -497 -31 0
-498 497 0
-498 31 0
499 -897 -496 0
-499 897 0
-499 496 0
500 -826 -715 0
-500 826 0
-500 715 0
501 -500 -44 0
-501 500 0
-501 44 0
502 -898 -499 0
-502 898 0
-502 499 0
503 -20 -729 0
-503 20 0
-503 729 0
504 -503 -44 0
-504 503 0
-504 44 0
505 -899 -502 0
-505 899 0
-505 502 0
506 -837 -17 0
-506 837 0
-506 17 0
507 -506 -19 0
-507 506 0
-507 19 0
508 -900 -505 0
-508 900 0
-508 505 0
509 -877 -901 0
-509 877 0
-509 901 0
510 -509 -790 0
-510 509 0
-510 790 0
511 -902 -508 0
-511 902 0
-511 508 0
512 -26 -790 0
-512 26 0
-512 790 0
513 -512 -48 0
-513 512 0
-513 48 0
514 -903 -511 0
-514 903 0
-514 511 0
515 -32 -706 0
-515 32 0
-515 706 0
516 -515 -812 0
-516 515 0
-516 812 0
517 -904 -514 0
-517 904 0
-517 514 0
518 -47 -734 0
-518 47 0
-518 734 0
519 -518 -6 0
-519 518 0
-519 6 0
520 -905 -517 0
-520 905 0
-520 517 0
521 -43 -734 0
-521 43 0
-521 734 0
522 -521 -871 0
-522 521 0
-522 871 0
523 -906 -520 0
-523 906 0
-523 520 0
524 -23 -772 0
-524 23 0
-524 772 0
525 -524 -828 0
-525 524 0
-525 828 0
526 -907 -523 0
-526 907 0
-526 523 0
527 -77 -24 0
-527 77 0
-527 24 0
528 -908 -526 0
-528 908 0
-528 526 0
529 -765 -772 0
-529 765 0
-529 772 0
530 -529 -48 0
-530 529 0
-530 48 0
531 -909 -528 0
-531 909 0
-531 528 0
532 -10 -702 0
-532 10 0
-532 702 0
533 -532 -3 0
-533 532 0
-533 3 0
534 -910 -531 0
-534 910 0
-534 531 0
535 -804 -10 0
-535 804 0
-535 10 0
536 -535 -27 0
-536 535 0
-536 27 0
537 -911 -534 0
-537 911 0
-537 534 0
538 -722 -18 0
-538 722 0
-538 18 0
539 -538 -23 0
-539 538 0
-539 23 0
540 -912 -537 0
-540 912 0
-540 537 0
541 -41 -32 0
-541 41 0
-541 32 0
542 -541 -747 0
-542 541 0
-542 747 0
543 -913 -540 0
-543 913 0
-543 540 0
544 -30 -18 0
-544 30 0
-544 18 0
545 -544 -747 0
-545 544 0
-545 747 0
546 -914 -543 0
-546 914 0
-546 543 0
547 -3 -1 0
-547 3 0
-547 1 0
548 -547 -16 0
-548 547 0
-548 16 0
549 -915 -546 0
-549 915 0
-549 546 0
550 -29 -708 0
-550 29 0
-550 708 0
551 -550 -25 0
-551 550 0
-551 25 0
552 -916 -549 0
-552 916 0
-552 549 0
553 -29 -22 0
-553 29 0
-553 22 0
554 -553 -806 0
-554 553 0
-554 806 0
555 -917 -552 0
-555 917 0
-555 552 0
556 -727 -25 0
-556 727 0
-556 25 0
557 -556 -50 0
-557 556 0
-557 50 0
558 -918 -555 0
-558 918 0
-558 555 0
559 -29 -712 0
-559 29 0
-559 712 0
560 -559 -6 0
-560 559 0
-560 6 0
561 -919 -558 0
-561 919 0
-561 558 0
562 -837 -714 0
-562 837 0
-562 714 0
563 -562 -42 0
-563 562 0
-563 42 0
564 -920 -561 0
-564 920 0
-564 561 0
565 -41 -18 0
-565 41 0
-565 18 0
566 -565 -760 0
-566 565 0
-566 760 0
567 -921 -564 0
-567 921 0
-567 564 0
568 -814 -18 0
-568 814 0
-568 18 0
569 -568 -49 0
-569 568 0
-569 49 0
570 -922 -567 0
-570 922 0
-570 567 0
571 -733 -20 0
-571 733 0
-571 20 0
572 -571 -701 0
-572 571 0
-572 701 0
573 -923 -570 0
-573 923 0
-573 570 0
574 -38 -10 0
-574 38 0
-574 10 0
575 -574 -24 0
-575 574 0
-575 24 0
576 -924 -573 0
-576 924 0
-576 573 0
577 -775 -33 0
-577 775 0
-577 33 0
578 -577 -48 0
-578 577 0
-578 48 0
579 -925 -576 0
-579 925 0
-579 576 0
580 -760 -21 0
-580 760 0
-580 21 0
581 -580 -9 0
-581 580 0
-581 9 0
582 -926 -579 0
-582 926 0
-582 579 0
583 -47 -722 0
-583 47 0
-583 722 0
584 -583 -24 0
-584 583 0
-584 24 0
585 -927 -582 0
-585 927 0
-585 582 0
586 -33 -26 0
-586 33 0
-586 26 0
587 -586 -747 0
-587 586 0
-587 747 0
588 -928 -585 0
-588 928 0
-588 585 0
589 -43 -733 0
-589 43 0
-589 733 0
590 -589 -712 0
-590 589 0
-590 712 0
591 -929 -588 0
-591 929 0
-591 588 0
592 -24 -6 0
-592 24 0
-592 6 0
593 -592 -729 0
-593 592 0
-593 729 0
594 -930 -591 0
-594 930 0
-594 591 0
595 -753 -767 0
-595 753 0
-595 767 0
596 -595 -759 0
-596 595 0
-596 759 0
597 -931 -594 0
-597 931 0
-597 594 0
598 -26 -25 0
-598 26 0
-598 25 0
599 -598 -725 0
-599 598 0
-599 725 0
600 -932 -597 0
-600 932 0
-600 597 0
601 -47 -933 0
-601 47 0
-601 933 0
602 -601 -747 0
-602 601 0
-602 747 0
603 -934 -600 0
-603 934 0
-603 600 0
604 -25 -4 0
-604 25 0
-604 4 0
605 -604 -31 0
-605 604 0
-605 31 0
606 -935 -603 0
-606 935 0
-606 603 0
607 -20 -756 0
-607 20 0
-607 756 0
608 -607 -16 0
-608 607 0
-608 16 0
609 -936 -606 0
-609 936 0
-609 606 0
610 -22 -1 0
-610 22 0
-610 1 0
611 -610 -780 0
-611 610 0
-611 780 0
612 -937 -609 0
-612 937 0
-612 609 0
613 -12 -6 0
-613 12 0
-613 6 0
614 -613 -16 0
-614 613 0
-614 16 0
615 -938 -612 0
-615 938 0
-615 612 0
616 -49 -34 0
-616 49 0
-616 34 0
617 -616 -753 0
-617 616 0
-617 753 0
618 -939 -615 0
-618 939 0
-618 615 0
619 -43 -11 0
-619 43 0
-619 11 0
620 -619 -780 0
-620 619 0
-620 780 0
621 -940 -618 0
-621 940 0
-621 618 0
622 -35 -812 0
-622 35 0
-622 812 0
623 -622 -36 0
-623 622 0
-623 36 0
624 -941 -621 0
-624 941 0
-624 621 0
625 -45 -759 0
-625 45 0
-625 759 0
626 -625 -42 0
-626 625 0
-626 42 0
627 -942 -624 0
-627 942 0
-627 624 0
628 -733 -31 0
-628 733 0
-628 31 0
629 -628 -50 0
-629 628 0
-629 50 0
630 -943 -627 0
-630 943 0
-630 627 0
631 -742 -10 0
-631 742 0
-631 10 0
632 -631 -744 0
-632 631 0
-632 744 0
633 -944 -630 0
-633 944 0
-633 630 0
634 -717 -901 0
-634 717 0
-634 901 0
635 -634 -714 0
-635 634 0
-635 714 0
636 -945 -633 0
-636 945 0
-636 633 0
637 -733 -3 0
-637 733 0
-637 3 0
638 -637 -777 0
-638 637 0
-638 777 0
639 -946 -636 0
-639 946 0
-639 636 0
640 -49 -933 0
-640 49 0
-640 933 0
641 -640 -744 0
-641 640 0
-641 744 0
642 -947 -639 0
-642 947 0
-642 639 0
643 -742 -700 0
-643 742 0
-643 700 0
644 -643 -734 0
-644 643 0
-644 734 0
645 -948 -642 0
-645 948 0
-645 642 0
646 -28 -25 0
-646 28 0
-646 25 0
647 -646 -826 0
-647 646 0
-647 826 0
648 -949 -645 0
-648 949 0
-648 645 0
649 -28 -717 0
-649 28 0
-649 717 0
650 -649 -737 0
-650 649 0
-650 737 0
651 -950 -648 0
-651 950 0
-651 648 0
652 -764 -702 0
-652 764 0
-652 702 0
653 -652 -744 0
-653 652 0
-653 744 0
654 -951 -651 0
-654 951 0
-654 651 0
655 -804 -30 0
-655 804 0
-655 30 0
656 -655 -747 0
-656 655 0
-656 747 0
657 -952 -654 0
-657 952 0
-657 654 0
658 -34 -29 0
-658 34 0
-658 29 0
659 -658 -28 0
-659 658 0
-659 28 0
660 -953 -657 0
-660 953 0
-660 657 0
661 -740 -19 0
-661 740 0
-661 19 0
662 -661 -749 0
-662 661 0
-662 749 0
663 -954 -660 0
-663 954 0
-663 660 0
664 -10 -790 0
-664 10 0
-664 790 0
665 -664 -16 0
-665 664 0
-665 16 0
666 -955 -663 0
-666 955 0
-666 663 0
667 -29 -4 0
-667 29 0
-667 4 0
668 -667 -715 0
-668 667 0
-668 715 0
669 -956 -666 0
-669 956 0
-669 666 0
670 -42 -35 0
-670 42 0
-670 35 0
671 -670 -737 0
-671 670 0
-671 737 0
672 -957 -669 0
-672 957 0
-672 669 0
673 -26 -712 0
-673 26 0
-673 712 0
674 -673 -9 0
-674 673 0
-674 9 0
675 -958 -672 0
-675 958 0
-675 672 0
676 -780 -38 0
-676 780 0
-676 38 0
677 -676 -7 0
-677 676 0
-677 7 0
678 -959 -675 0
-678 959 0
-678 675 0
679 -45 -42 0
-679 45 0
-679 42 0
680 -679 -24 0
-680 679 0
-680 24 0
681 -960 -678 0
-681 960 0
-681 678 0
682 -640 -25 0
-682 640 0
-682 25 0
683 -961 -681 0
-683 961 0
-683 681 0
684 -727 -27 0
-684 727 0
-684 27 0
685 -684 -737 0
-685 684 0
-685 737 0
686 -962 -683 0
-686 962 0
-686 683 0
687 -744 -17 0
-687 744 0
-687 17 0
688 -687 -729 0
-688 687 0
-688 729 0
689 -963 -686 0
-689 963 0
-689 686 0
690 -45 -31 0
-690 45 0
-690 31 0
691 -690 -21 0
-691 690 0
-691 21 0
692 -964 -689 0
-692 964 0
-692 689 0
693 -14 -699 0
-693 14 0
-693 699 0
694 -693 -747 0
-694 693 0
-694 747 0
695 -965 -692 0
-695 965 0
-695 692 0
696 -49 -24 0
-696 49 0
-696 24 0
697 -696 -31 0
-697 696 0
-697 31 0
698 -966 -695 0
-698 966 0
-698 695 0
-699 -2 0
699 2 0
-700 -1 0
700 1 0
-701 -3 0
701 3 0
-702 -5 0
702 5 0
-703 -54 0
703 54 0
-704 -52 0
704 52 0
-705 -57 0
705 57 0
-706 -8 0
706 8 0
-707 -60 0
707 60 0
-708 -11 0
708 11 0
-709 -63 0
709 63 0
-710 -66 0
710 66 0
-711 -69 0
711 69 0
-712 -19 0
712 19 0
-713 -72 0
713 72 0
-714 -20 0
714 20 0
-715 -21 0
715 21 0
-716 -75 0
716 75 0
-717 -23 0
717 23 0
-718 -22 0
718 22 0
-719 -24 0
719 24 0
-720 -78 0
720 78 0
-721 -81 0
721 81 0
-722 -26 0
722 26 0
-723 -84 0
723 84 0
-724 -13 0
724 13 0
-725 -27 0
725 27 0
-726 -87 0
726 87 0
-727 -28 0
727 28 0
-728 -10 0
728 10 0
-729 -9 0
729 9 0
-730 -90 0
730 90 0
-731 -93 0
731 93 0
-732 -96 0
732 96 0
-733 -34 0
733 34 0
-734 -33 0
734 33 0
-735 -99 0
735 99 0
-736 -102 0
736 102 0
-737 -36 0
737 36 0
-738 -105 0
738 105 0
-739 -108 0
739 108 0
-740 -38 0
740 38 0
-741 -111 0
741 111 0
-742 -40 0
742 40 0
-743 -114 0
743 114 0
-744 -32 0
744 32 0
-745 -117 0
745 117 0
-746 -120 0
746 120 0
-747 -42 0
747 42 0
-748 -123 0
748 123 0
-749 -12 0
749 12 0
-750 -126 0
750 126 0
-751 -129 0
751 129 0
-752 -132 0
752 132 0
-753 -39 0
753 39 0
-754 -135 0
754 135 0
-755 -138 0
755 138 0
-756 -15 0
756 15 0
-757 -141 0
757 141 0
-758 -144 0
758 144 0
-759 -29 0
759 29 0
-760 -25 0
760 25 0
-761 -147 0
761 147 0
-762 -150 0
762 150 0
-763 -153 0
763 153 0
-764 -14 0
764 14 0
-765 -31 0
765 31 0
-766 -156 0
766 156 0
-767 -35 0
767 35 0
-768 -159 0
768 159 0
-769 -162 0
769 162 0
-770 -165 0
770 165 0
-771 -168 0
771 168 0
-772 -18 0
772 18 0
-773 -171 0
773 171 0
-774 -174 0
774 174 0
-775 -46 0
775 46 0
-776 -177 0
776 177 0
-777 -16 0
777 16 0
-778 -180 0
778 180 0
-779 -183 0
779 183 0
-780 -47 0
780 47 0
-781 -186 0
781 186 0
-782 -189 0
782 189 0
-783 -192 0
783 192 0
-784 -195 0
784 195 0
-785 -198 0
785 198 0
-786 -201 0
786 201 0
-787 -204 0
787 204 0
-788 -207 0
788 207 0
-789 -210 0
789 210 0
-790 -4 0
790 4 0
-791 -213 0
791 213 0
-792 -216 0
792 216 0
-793 -219 0
793 219 0
-794 -222 0
794 222 0
-795 -225 0
795 225 0
-796 -228 0
796 228 0
-797 -231 0
797 231 0
-798 -234 0
798 234 0
-799 -237 0
799 237 0
-800 -240 0
800 240 0
-801 -243 0
801 243 0
-802 -246 0
802 246 0
-803 -249 0
803 249 0
-804 -37 0
804 37 0
-805 -252 0
805 252 0
-806 -44 0
806 44 0
-807 -255 0
807 255 0
-808 -258 0
808 258 0
-809 -261 0
809 261 0
-810 -264 0
810 264 0
-811 -267 0
811 267 0
-812 -7 0
812 7 0
-813 -270 0
813 270 0
-814 -45 0
814 45 0
-815 -273 0
815 273 0
-816 -276 0
816 276 0
-817 -279 0
817 279 0
-818 -282 0
818 282 0
-819 -285 0
819 285 0
-820 -287 0
820 287 0
-821 -290 0
821 290 0
-822 -293 0
822 293 0
-823 -296 0
823 296 0
-824 -299 0
824 299 0
-825 -302 0
825 302 0
-826 -48 0
826 48 0
-827 -305 0
827 305 0
-828 -41 0
828 41 0
-829 -308 0
829 308 0
-830 -310 0
830 310 0
-831 -313 0
831 313 0
-832 -316 0
832 316 0
-833 -319 0
833 319 0
-834 -322 0
834 322 0
-835 -325 0
835 325 0
-836 -328 0
836 328 0
-837 -43 0
837 43 0
-838 -331 0
838 331 0
-839 -334 0
839 334 0
-840 -337 0
840 337 0
-841 -340 0
841 340 0
-842 -343 0
842 343 0
-843 -346 0
843 346 0
-844 -349 0
844 349 0
-845 -352 0
845 352 0
-846 -355 0
846 355 0
-847 -358 0
847 358 0
-848 -361 0
848 361 0
-849 -364 0
849 364 0
-850 -367 0
850 367 0
-851 -370 0
851 370 0
-852 -373 0
852 373 0
-853 -376 0
853 376 0
-854 -379 0
854 379 0
-855 -382 0
855 382 0
-856 -385 0
856 385 0
-857 -388 0
857 388 0
-858 -391 0
858 391 0
-859 -394 0
859 394 0
-860 -397 0
860 397 0
-861 -400 0
861 400 0
-862 -403 0
862 403 0
-863 -406 0
863 406 0
-864 -409 0
864 409 0
-865 -412 0
865 412 0
-866 -415 0
866 415 0
-867 -417 0
867 417 0
-868 -420 0
868 420 0
-869 -423 0
869 423 0
-870 -426 0
870 426 0
-871 -50 0
871 50 0
-872 -429 0
872 429 0
-873 -432 0
873 432 0
-874 -435 0
874 435 0
-875 -6 0
875 6 0
-876 -438 0
876 438 0
-877 -49 0
877 49 0
-878 -441 0
878 441 0
-879 -444 0
879 444 0
-880 -447 0
880 447 0
-881 -450 0
881 450 0
-882 -453 0
882 453 0
-883 -456 0
883 456 0
-884 -459 0
884 459 0
-885 -462 0
885 462 0
-886 -465 0
886 465 0
-887 -468 0
887 468 0
-888 -471 0
888 471 0
-889 -474 0
889 474 0
-890 -477 0
890 477 0
-891 -480 0
891 480 0
-892 -483 0
892 483 0
-893 -486 0
893 486 0
-894 -489 0
894 489 0
-895 -492 0
895 492 0
-896 -495 0
896 495 0
-897 -498 0
897 498 0
-898 -501 0
898 501 0
-899 -504 0
899 504 0
-900 -507 0
900 507 0
-901 -17 0
901 17 0
-902 -510 0
902 510 0
-903 -513 0
903 513 0
-904 -516 0
904 516 0
-905 -519 0
905 519 0
-906 -522 0
906 522 0
-907 -525 0
907 525 0
-908 -527 0
908 527 0
-909 -530 0
909 530 0
-910 -533 0
910 533 0
-911 -536 0
911 536 0
-912 -539 0
912 539 0
-913 -542 0
913 542 0
-914 -545 0
914 545 0
-915 -548 0
915 548 0
-916 -551 0
916 551 0
-917 -554 0
917 554 0
-918 -557 0
918 557 0
-919 -560 0
919 560 0
-920 -563 0
920 563 0
-921 -566 0
921 566 0
-922 -569 0
922 569 0
-923 -572 0
923 572 0
-924 -575 0
924 575 0
-925 -578 0
925 578 0
-926 -581 0
926 581 0
-927 -584 0
927 584 0
-928 -587 0
928 587 0
-929 -590 0
929 590 0
-930 -593 0
930 593 0
-931 -596 0
931 596 0
-932 -599 0
932 599 0
-933 -30 0
933 30 0
-934 -602 0
934 602 0
-935 -605 0
935 605 0
-936 -608 0
936 608 0
-937 -611 0
937 611 0
-938 -614 0
938 614 0
-939 -617 0
939 617 0
-940 -620 0
940 620 0
-941 -623 0
941 623 0
-942 -626 0
942 626 0
-943 -629 0
943 629 0
-944 -632 0
944 632 0
-945 -635 0
945 635 0
-946 -638 0
946 638 0
-947 -641 0
947 641 0
-948 -644 0
948 644 0
-949 -647 0
949 647 0
-950 -650 0
950 650 0
-951 -653 0
951 653 0
-952 -656 0
952 656 0
-953 -659 0
953 659 0
-954 -662 0
954 662 0
-955 -665 0
955 665 0
-956 -668 0
956 668 0
-957 -671 0
957 671 0
-958 -674 0
958 674 0
-959 -677 0
959 677 0
-960 -680 0
960 680 0
-961 -682 0
961 682 0
-962 -685 0
962 685 0
-963 -688 0
963 688 0
-964 -691 0
964 691 0
-965 -694 0
965 694 0
-966 -697 0
966 697 0
698 0
